npieces = 5;	
nplayers = 10;	
duration = [6, 4, 7, 7, 2];
rehearsal = [[1, 1, 0, 1, 0], [1, 1, 0, 1, 1], [0, 0, 0, 0, 1], [1, 1, 0, 1, 1], [0, 1, 1, 0, 1], [1, 0, 1, 1, 1], [1, 1, 1, 0, 1], [1, 0, 1, 1, 1], [0, 1, 1, 1, 1], [0, 1, 1, 1, 0]];